NAME: tsp_221
COMMENT: Random TSP instance
TYPE: TSP
DIMENSION: 50
EDGE_WEIGHT_TYPE: EUC_2D
NODE_COORD_SECTION
1 30 320
2 669 208
3 538 633
4 311 675
5 816 431
6 515 718
7 738 616
8 602 652
9 604 332
10 216 560
11 19 732
12 498 273
13 661 397
14 538 273
15 411 925
16 843 709
17 687 555
18 255 818
19 422 639
20 124 652
21 402 358
22 423 705
23 579 817
24 723 503
25 331 107
26 156 634
27 60 607
28 611 317
29 843 674
30 246 121
31 847 295
32 479 461
33 877 927
34 363 31
35 269 761
36 366 828
37 931 237
38 814 550
39 14 98
40 520 413
41 778 275
42 732 409
43 297 324
44 282 393
45 145 910
46 237 222
47 706 241
48 201 787
49 814 123
50 131 718
